(declare-fun strlen_149_64 () (_ BitVec 64))
(declare-fun args_1_8 () (_ BitVec 8))
(declare-fun strlen_147_64 () (_ BitVec 64))
(declare-fun strlen_145_64 () (_ BitVec 64))
(declare-fun strlen_143_64 () (_ BitVec 64))
(declare-fun strlen_141_64 () (_ BitVec 64))
(declare-fun strlen_139_64 () (_ BitVec 64))
(declare-fun strlen_137_64 () (_ BitVec 64))
(declare-fun strlen_135_64 () (_ BitVec 64))
(declare-fun strlen_133_64 () (_ BitVec 64))
(declare-fun strlen_131_64 () (_ BitVec 64))
(declare-fun strlen_129_64 () (_ BitVec 64))
(declare-fun strlen_127_64 () (_ BitVec 64))
(declare-fun strlen_125_64 () (_ BitVec 64))
(declare-fun strlen_123_64 () (_ BitVec 64))
(declare-fun strlen_121_64 () (_ BitVec 64))
(declare-fun strlen_119_64 () (_ BitVec 64))
(declare-fun strlen_117_64 () (_ BitVec 64))
(declare-fun strlen_115_64 () (_ BitVec 64))
(declare-fun strlen_113_64 () (_ BitVec 64))
(declare-fun strlen_111_64 () (_ BitVec 64))
(declare-fun strlen_109_64 () (_ BitVec 64))
(declare-fun strlen_107_64 () (_ BitVec 64))
(declare-fun strlen_105_64 () (_ BitVec 64))
(declare-fun strlen_103_64 () (_ BitVec 64))
(declare-fun strlen_101_64 () (_ BitVec 64))
(declare-fun strlen_99_64 () (_ BitVec 64))
(declare-fun strlen_97_64 () (_ BitVec 64))
(declare-fun strlen_95_64 () (_ BitVec 64))
(declare-fun strlen_93_64 () (_ BitVec 64))
(declare-fun strlen_91_64 () (_ BitVec 64))
(declare-fun strlen_89_64 () (_ BitVec 64))
(declare-fun strlen_87_64 () (_ BitVec 64))
(declare-fun strlen_85_64 () (_ BitVec 64))
(declare-fun strlen_83_64 () (_ BitVec 64))
(declare-fun strlen_81_64 () (_ BitVec 64))
(declare-fun strlen_79_64 () (_ BitVec 64))
(declare-fun strlen_65_64 () (_ BitVec 64))
(declare-fun strlen_151_64 () (_ BitVec 64))
(declare-fun strlen_72_64 () (_ BitVec 64))
(assert (let ((a!1 (or (not (= #x2d args_1_8))
               (not (or (= #x0000000000000002 strlen_65_64)
                        (bvule #x0000000000000002 strlen_65_64)))))
      (a!2 (or (not (= #x61 args_1_8))
               (not (or (= #x0000000000000007 strlen_79_64)
                        (bvule #x0000000000000007 strlen_79_64)))))
      (a!3 (or (not (= #x79 args_1_8))
               (not (or (= #x0000000000000004 strlen_81_64)
                        (bvule #x0000000000000004 strlen_81_64)))))
      (a!4 (or (not (= #x73 args_1_8))
               (not (or (= #x0000000000000005 strlen_83_64)
                        (bvule #x0000000000000005 strlen_83_64)))))
      (a!5 (or (not (= #x6c args_1_8))
               (not (or (= #x0000000000000003 strlen_85_64)
                        (bvule #x0000000000000003 strlen_85_64)))))
      (a!6 (or (not (= #x64 args_1_8))
               (not (or (= #x0000000000000008 strlen_87_64)
                        (bvule #x0000000000000008 strlen_87_64)))))
      (a!7 (or (not (= #x64 args_1_8))
               (not (or (= #x0000000000000006 strlen_89_64)
                        (bvule #x0000000000000006 strlen_89_64)))))
      (a!8 (or (not (= #x63 args_1_8))
               (not (or (= #x0000000000000005 strlen_91_64)
                        (bvule #x0000000000000005 strlen_91_64)))))
      (a!9 (or (not (= #x67 args_1_8))
               (not (or (= #x0000000000000002 strlen_93_64)
                        (bvule #x0000000000000002 strlen_93_64)))))
      (a!10 (or (not (= #x72 args_1_8))
                (not (or (= #x0000000000000003 strlen_95_64)
                         (bvule #x0000000000000003 strlen_95_64)))))
      (a!11 (or (not (= #x63 args_1_8))
                (not (or (= #x0000000000000004 strlen_97_64)
                         (bvule #x0000000000000004 strlen_97_64)))))
      (a!12 (or (not (= #x63 args_1_8))
                (not (or (= #x0000000000000008 strlen_99_64)
                         (bvule #x0000000000000008 strlen_99_64)))))
      (a!13 (or (not (= #x63 args_1_8))
                (not (or (= #x000000000000000a strlen_101_64)
                         (bvule #x000000000000000a strlen_101_64)))))
      (a!14 (or (not (= #x72 args_1_8))
                (not (or (= #x0000000000000009 strlen_103_64)
                         (bvule #x0000000000000009 strlen_103_64)))))
      (a!15 (or (not (= #x69 args_1_8))
                (not (or (= #x000000000000000a strlen_105_64)
                         (bvule #x000000000000000a strlen_105_64)))))
      (a!16 (or (not (= #x73 args_1_8))
                (not (or (= #x0000000000000009 strlen_107_64)
                         (bvule #x0000000000000009 strlen_107_64)))))
      (a!17 (or (not (= #x61 args_1_8))
                (not (or (= #x0000000000000003 strlen_109_64)
                         (bvule #x0000000000000003 strlen_109_64)))))
      (a!18 (or (not (= #x74 args_1_8))
                (not (or (= #x0000000000000003 strlen_111_64)
                         (bvule #x0000000000000003 strlen_111_64)))))
      (a!19 (or (not (= #x33 args_1_8))
                (not (or (= #x0000000000000002 strlen_113_64)
                         (bvule #x0000000000000002 strlen_113_64)))))
      (a!20 (or (not (= #x74 args_1_8))
                (not (or (= #x0000000000000004 strlen_115_64)
                         (bvule #x0000000000000004 strlen_115_64)))))
      (a!21 (or (not (= #x6e args_1_8))
                (not (or (= #x0000000000000009 strlen_117_64)
                         (bvule #x0000000000000009 strlen_117_64)))))
      (a!22 (or (not (= #x72 args_1_8))
                (not (or (= #x0000000000000005 strlen_119_64)
                         (bvule #x0000000000000005 strlen_119_64)))))
      (a!23 (or (not (= #x72 args_1_8))
                (not (or (= #x0000000000000005 strlen_121_64)
                         (bvule #x0000000000000005 strlen_121_64)))))
      (a!24 (or (not (= #x64 args_1_8))
                (not (or (= #x000000000000000b strlen_123_64)
                         (bvule #x000000000000000b strlen_123_64)))))
      (a!25 (or (not (= #x73 args_1_8))
                (not (or (= #x000000000000000a strlen_125_64)
                         (bvule #x000000000000000a strlen_125_64)))))
      (a!26 (or (not (= #x6e args_1_8))
                (not (or (= #x0000000000000009 strlen_127_64)
                         (bvule #x0000000000000009 strlen_127_64)))))
      (a!27 (or (not (= #x72 args_1_8))
                (not (or (= #x0000000000000007 strlen_129_64)
                         (bvule #x0000000000000007 strlen_129_64)))))
      (a!28 (or (not (= #x6f args_1_8))
                (not (or (= #x0000000000000003 strlen_131_64)
                         (bvule #x0000000000000003 strlen_131_64)))))
      (a!29 (or (not (= #x73 args_1_8))
                (not (or (= #x0000000000000005 strlen_133_64)
                         (bvule #x0000000000000005 strlen_133_64)))))
      (a!30 (or (not (= #x6f args_1_8))
                (not (or (= #x0000000000000006 strlen_135_64)
                         (bvule #x0000000000000006 strlen_135_64)))))
      (a!31 (or (not (= #x6f args_1_8))
                (not (or (= #x0000000000000007 strlen_137_64)
                         (bvule #x0000000000000007 strlen_137_64)))))
      (a!32 (or (not (= #x70 args_1_8))
                (not (or (= #x0000000000000005 strlen_139_64)
                         (bvule #x0000000000000005 strlen_139_64)))))
      (a!33 (or (not (= #x70 args_1_8))
                (not (or (= #x0000000000000007 strlen_141_64)
                         (bvule #x0000000000000007 strlen_141_64)))))
      (a!34 (or (not (= #x61 args_1_8))
                (not (or (= #x0000000000000007 strlen_143_64)
                         (bvule #x0000000000000007 strlen_143_64)))))
      (a!35 (or (not (= #x76 args_1_8))
                (not (or (= #x0000000000000009 strlen_145_64)
                         (bvule #x0000000000000009 strlen_145_64)))))
      (a!36 (or (not (= #x6d args_1_8))
                (not (or (= #x0000000000000005 strlen_147_64)
                         (bvule #x0000000000000005 strlen_147_64)))))
      (a!37 (or (not (= #x69 args_1_8))
                (not (or (= #x0000000000000006 strlen_149_64)
                         (bvule #x0000000000000006 strlen_149_64))))))
  (and (= (ite (= #x00 args_1_8) #x07fffffffffeffd2 #x07fffffffffeffd3)
          (bvadd #x07fffffffffeffd2 strlen_65_64))
       (= (ite (= #x00 args_1_8) #x07fffffffffeffd2 #x07fffffffffeffd3)
          (bvadd #x07fffffffffeffd2 strlen_72_64))
       (= (ite (= #x00 args_1_8) #x07fffffffffeffd2 #x07fffffffffeffd3)
          (bvadd #x07fffffffffeffd2 strlen_79_64))
       (= (ite (= #x00 args_1_8) #x07fffffffffeffd2 #x07fffffffffeffd3)
          (bvadd #x07fffffffffeffd2 strlen_81_64))
       (= (ite (= #x00 args_1_8) #x07fffffffffeffd2 #x07fffffffffeffd3)
          (bvadd #x07fffffffffeffd2 strlen_83_64))
       (= (ite (= #x00 args_1_8) #x07fffffffffeffd2 #x07fffffffffeffd3)
          (bvadd #x07fffffffffeffd2 strlen_85_64))
       (= (ite (= #x00 args_1_8) #x07fffffffffeffd2 #x07fffffffffeffd3)
          (bvadd #x07fffffffffeffd2 strlen_87_64))
       (= (ite (= #x00 args_1_8) #x07fffffffffeffd2 #x07fffffffffeffd3)
          (bvadd #x07fffffffffeffd2 strlen_89_64))
       (= (ite (= #x00 args_1_8) #x07fffffffffeffd2 #x07fffffffffeffd3)
          (bvadd #x07fffffffffeffd2 strlen_91_64))
       (= (ite (= #x00 args_1_8) #x07fffffffffeffd2 #x07fffffffffeffd3)
          (bvadd #x07fffffffffeffd2 strlen_93_64))
       (= (ite (= #x00 args_1_8) #x07fffffffffeffd2 #x07fffffffffeffd3)
          (bvadd #x07fffffffffeffd2 strlen_95_64))
       (= (ite (= #x00 args_1_8) #x07fffffffffeffd2 #x07fffffffffeffd3)
          (bvadd #x07fffffffffeffd2 strlen_97_64))
       (= (ite (= #x00 args_1_8) #x07fffffffffeffd2 #x07fffffffffeffd3)
          (bvadd #x07fffffffffeffd2 strlen_99_64))
       (= (ite (= #x00 args_1_8) #x07fffffffffeffd2 #x07fffffffffeffd3)
          (bvadd #x07fffffffffeffd2 strlen_101_64))
       (= (ite (= #x00 args_1_8) #x07fffffffffeffd2 #x07fffffffffeffd3)
          (bvadd #x07fffffffffeffd2 strlen_103_64))
       (= (ite (= #x00 args_1_8) #x07fffffffffeffd2 #x07fffffffffeffd3)
          (bvadd #x07fffffffffeffd2 strlen_105_64))
       (= (ite (= #x00 args_1_8) #x07fffffffffeffd2 #x07fffffffffeffd3)
          (bvadd #x07fffffffffeffd2 strlen_107_64))
       (= (ite (= #x00 args_1_8) #x07fffffffffeffd2 #x07fffffffffeffd3)
          (bvadd #x07fffffffffeffd2 strlen_109_64))
       (= (ite (= #x00 args_1_8) #x07fffffffffeffd2 #x07fffffffffeffd3)
          (bvadd #x07fffffffffeffd2 strlen_111_64))
       (= (ite (= #x00 args_1_8) #x07fffffffffeffd2 #x07fffffffffeffd3)
          (bvadd #x07fffffffffeffd2 strlen_113_64))
       (= (ite (= #x00 args_1_8) #x07fffffffffeffd2 #x07fffffffffeffd3)
          (bvadd #x07fffffffffeffd2 strlen_115_64))
       (= (ite (= #x00 args_1_8) #x07fffffffffeffd2 #x07fffffffffeffd3)
          (bvadd #x07fffffffffeffd2 strlen_117_64))
       (= (ite (= #x00 args_1_8) #x07fffffffffeffd2 #x07fffffffffeffd3)
          (bvadd #x07fffffffffeffd2 strlen_119_64))
       (= (ite (= #x00 args_1_8) #x07fffffffffeffd2 #x07fffffffffeffd3)
          (bvadd #x07fffffffffeffd2 strlen_121_64))
       (= (ite (= #x00 args_1_8) #x07fffffffffeffd2 #x07fffffffffeffd3)
          (bvadd #x07fffffffffeffd2 strlen_123_64))
       (= (ite (= #x00 args_1_8) #x07fffffffffeffd2 #x07fffffffffeffd3)
          (bvadd #x07fffffffffeffd2 strlen_125_64))
       (= (ite (= #x00 args_1_8) #x07fffffffffeffd2 #x07fffffffffeffd3)
          (bvadd #x07fffffffffeffd2 strlen_127_64))
       (= (ite (= #x00 args_1_8) #x07fffffffffeffd2 #x07fffffffffeffd3)
          (bvadd #x07fffffffffeffd2 strlen_129_64))
       (= (ite (= #x00 args_1_8) #x07fffffffffeffd2 #x07fffffffffeffd3)
          (bvadd #x07fffffffffeffd2 strlen_131_64))
       (= (ite (= #x00 args_1_8) #x07fffffffffeffd2 #x07fffffffffeffd3)
          (bvadd #x07fffffffffeffd2 strlen_133_64))
       (= (ite (= #x00 args_1_8) #x07fffffffffeffd2 #x07fffffffffeffd3)
          (bvadd #x07fffffffffeffd2 strlen_135_64))
       (= (ite (= #x00 args_1_8) #x07fffffffffeffd2 #x07fffffffffeffd3)
          (bvadd #x07fffffffffeffd2 strlen_137_64))
       (= (ite (= #x00 args_1_8) #x07fffffffffeffd2 #x07fffffffffeffd3)
          (bvadd #x07fffffffffeffd2 strlen_139_64))
       (= (ite (= #x00 args_1_8) #x07fffffffffeffd2 #x07fffffffffeffd3)
          (bvadd #x07fffffffffeffd2 strlen_141_64))
       (= (ite (= #x00 args_1_8) #x07fffffffffeffd2 #x07fffffffffeffd3)
          (bvadd #x07fffffffffeffd2 strlen_143_64))
       (= (ite (= #x00 args_1_8) #x07fffffffffeffd2 #x07fffffffffeffd3)
          (bvadd #x07fffffffffeffd2 strlen_145_64))
       (= (ite (= #x00 args_1_8) #x07fffffffffeffd2 #x07fffffffffeffd3)
          (bvadd #x07fffffffffeffd2 strlen_147_64))
       (= (ite (= #x00 args_1_8) #x07fffffffffeffd2 #x07fffffffffeffd3)
          (bvadd #x07fffffffffeffd2 strlen_149_64))
       (= (ite (= #x00 args_1_8) #x07fffffffffeffd2 #x07fffffffffeffd3)
          (bvadd #x07fffffffffeffd2 strlen_151_64))
       a!1
       a!2
       a!3
       a!4
       a!5
       a!6
       a!7
       a!8
       a!9
       a!10
       a!11
       a!12
       a!13
       a!14
       a!15
       a!16
       a!17
       a!18
       a!19
       a!20
       a!21
       a!22
       a!23
       a!24
       a!25
       a!26
       a!27
       a!28
       a!29
       a!30
       a!31
       a!32
       a!33
       a!34
       a!35
       a!36
       a!37)))
(maximize strlen_151_64)
(check-sat)

